1649133
0,53,12,46,3,19,64,47,1,44,26,16,8,57,14,7,35,58,15,62,27,49,52,67,34,50,38,61,36,43,13,9,17,56,32,51,21,30,20,37,66,6,42,45,54,25,65,10,33,63,5,40,29,24,28,59,22,48,18,4,39,55,31,41,2,60,23,11,0